Minimize
0 {p_alpha}
Subject To
nb_0_is_not_cost_dominated_by_0________:
1.627906976744186p_alpha + 0p_penaltyDirect + 0p_transfercostCostDominance + 10p_m + 1p_b >= -43
nb_0_is_not_productivity_dominated_by_0:
70p_beta + 0p_transfercostProductivityDominance >= 100
nb_0_and_0_are_at_least_maxDist________:
1p_maxDistance <= 7
nb_0_is_not_cost_dominated_by_1________:
19.41176470588235p_alpha + 0p_penaltyDirect + 0p_transfercostCostDominance + 6p_m + 0p_b >= -13
nb_0_is_not_productivity_dominated_by_1:
330p_beta + 0p_transfercostProductivityDominance >= 32
nb_0_and_1_are_at_least_maxDist________:
1p_maxDistance <= 33
nb_1_is_not_cost_dominated_by_0________:
0p_alpha + 0p_penaltyDirect + 0p_transfercostCostDominance + 10p_m + 1p_b >= -43
nb_1_is_not_productivity_dominated_by_0:
0p_beta + 0p_transfercostProductivityDominance >= 100
nb_1_and_0_are_at_least_maxDist________:
1p_maxDistance <= 0
nb_1_is_not_cost_dominated_by_1________:
15.294117647058824p_alpha + 0p_penaltyDirect + 0p_transfercostCostDominance + 6p_m + 0p_b >= -13
nb_1_is_not_productivity_dominated_by_1:
260p_beta + 0p_transfercostProductivityDominance >= 32
nb_1_and_1_are_at_least_maxDist________:
1p_maxDistance <= 26
nb_2_is_not_cost_dominated_by_1________:
0p_alpha + 0p_penaltyDirect + 0p_transfercostCostDominance - 4p_m - 1p_b >= 30
nb_2_is_not_productivity_dominated_by_1:
0p_beta + 0p_transfercostProductivityDominance >= -68
nb_2_and_1_are_at_least_maxDist________:
1p_maxDistance <= 0
nb_3_is_not_cost_dominated_by_0________:
1.627906976744186p_alpha + 0p_penaltyDirect + 0p_transfercostCostDominance + 10p_m + 1p_b >= -43
nb_3_is_not_productivity_dominated_by_0:
70p_beta + 0p_transfercostProductivityDominance >= 100
nb_3_and_0_are_at_least_maxDist________:
1p_maxDistance <= 7
nb_3_is_not_cost_dominated_by_1________:
0p_alpha + 0p_penaltyDirect + 0p_transfercostCostDominance + 6p_m + 0p_b >= -13
nb_3_is_not_productivity_dominated_by_1:
0p_beta + 0p_transfercostProductivityDominance >= 32
nb_3_and_1_are_at_least_maxDist________:
1p_maxDistance <= 0
nb_4_is_not_cost_dominated_by_0________:
0p_alpha + 0p_penaltyDirect + 0p_transfercostCostDominance + 4p_m + 1p_b >= -30
nb_4_is_not_productivity_dominated_by_0:
0p_beta + 0p_transfercostProductivityDominance >= 68
nb_4_and_0_are_at_least_maxDist________:
1p_maxDistance <= 0
nb_5_is_not_cost_dominated_by_0________:
0p_alpha + 0p_penaltyDirect + 0p_transfercostCostDominance + 10p_m + 1p_b >= -43
nb_5_is_not_productivity_dominated_by_0:
0p_beta + 0p_transfercostProductivityDominance >= 100
nb_5_and_0_are_at_least_maxDist________:
1p_maxDistance <= 0
nb_5_is_not_cost_dominated_by_1________:
0p_alpha + 0p_penaltyDirect + 0p_transfercostCostDominance + 6p_m + 0p_b >= -13
nb_5_is_not_productivity_dominated_by_1:
0p_beta + 0p_transfercostProductivityDominance >= 32
nb_5_and_1_are_at_least_maxDist________:
1p_maxDistance <= 0
nb_6_is_not_cost_dominated_by_0________:
2.3255813953488373p_alpha + 0p_penaltyDirect + 0p_transfercostCostDominance + 10p_m + 1p_b >= -43
nb_6_is_not_productivity_dominated_by_0:
100p_beta + 0p_transfercostProductivityDominance >= 100
nb_6_and_0_are_at_least_maxDist________:
1p_maxDistance <= 10
nb_6_is_not_cost_dominated_by_1________:
5.882352941176471p_alpha + 0p_penaltyDirect + 0p_transfercostCostDominance + 6p_m + 0p_b >= -13
nb_6_is_not_productivity_dominated_by_1:
100p_beta + 0p_transfercostProductivityDominance >= 32
nb_6_and_1_are_at_least_maxDist________:
1p_maxDistance <= 10
nb_0_is_cost_dom_by_1___________:
7p_alpha + 1p_penaltyDirect + 0p_transfercostCostDominance + 0p_m + 0p_b - 43.03421571533775z0_1cost <= -1e-9
nb_0_is_prod_dom_by_1___________:
70p_beta + 0p_transfercostProductivityDominance - 43.03421571533775z0_1prod <= -1e-9
nb_0_and_1_are_less_than_maxDist:
1p_maxDistance + 43.03421571533775z0_1cost + 43.03421571533775z0_1prod >= 7.000000001
nb_0_is_cost_dom_by_2___________:
30.1p_alpha + 1p_penaltyDirect + 0p_transfercostCostDominance - 10p_m - 1p_b - 43.03421571533775z0_2cost <= 42.999999999
nb_0_is_prod_dom_by_2___________:
0p_beta + 0p_transfercostProductivityDominance - 43.03421571533775z0_2prod <= -100.000000001
nb_0_and_2_are_less_than_maxDist:
1p_maxDistance + 43.03421571533775z0_2cost + 43.03421571533775z0_2prod >= 7.000000001
nb_0_is_cost_dom_by_3___________:
33p_alpha + 1p_penaltyDirect + 0p_transfercostCostDominance + 0p_m + 0p_b - 43.03421571533775z0_3cost <= -1e-9
nb_0_is_prod_dom_by_3___________:
330p_beta + 0p_transfercostProductivityDominance - 43.03421571533775z0_3prod <= -1e-9
nb_0_and_3_are_less_than_maxDist:
1p_maxDistance + 43.03421571533775z0_3cost + 43.03421571533775z0_3prod >= 33.000000001
nb_0_is_cost_dom_by_4___________:
56.1p_alpha + 1p_penaltyDirect + 0p_transfercostCostDominance - 6p_m + 0p_b - 43.03421571533775z0_4cost <= 12.999999999
nb_0_is_prod_dom_by_4___________:
132p_beta + 0p_transfercostProductivityDominance - 43.03421571533775z0_4prod <= -32.000000001
nb_0_and_4_are_less_than_maxDist:
1p_maxDistance + 43.03421571533775z0_4cost + 43.03421571533775z0_4prod >= 33.000000001
nb_0_is_cost_dom_by_5___________:
40p_alpha + 1p_penaltyDirect + 0p_transfercostCostDominance + 0p_m + 0p_b - 43.03421571533775z0_5cost <= -1e-9
nb_0_is_prod_dom_by_5___________:
400p_beta + 0p_transfercostProductivityDominance - 43.03421571533775z0_5prod <= -1e-9
nb_0_and_5_are_less_than_maxDist:
1p_maxDistance + 43.03421571533775z0_5cost + 43.03421571533775z0_5prod >= 40.000000001
nb_0_is_cost_dom_by_6___________:
50p_alpha + 1p_penaltyDirect + 0p_transfercostCostDominance + 0p_m + 0p_b - 43.03421571533775z0_6cost <= -1e-9
nb_0_is_prod_dom_by_6___________:
500p_beta + 0p_transfercostProductivityDominance - 43.03421571533775z0_6prod <= -1e-9
nb_0_and_6_are_less_than_maxDist:
1p_maxDistance + 43.03421571533775z0_6cost + 43.03421571533775z0_6prod >= 50.000000001
nb_1_is_cost_dom_by_0___________:
7p_alpha + 1p_penaltyDirect + 0p_transfercostCostDominance + 0p_m + 0p_b - 43.03421571533775z1_0cost <= -1e-9
nb_1_is_prod_dom_by_0___________:
70p_beta + 0p_transfercostProductivityDominance - 43.03421571533775z1_0prod <= -1e-9
nb_1_and_0_are_less_than_maxDist:
1p_maxDistance + 43.03421571533775z1_0cost + 43.03421571533775z1_0prod >= 7.000000001
nb_1_is_cost_dom_by_2___________:
0p_alpha + 1p_penaltyDirect + 0p_transfercostCostDominance - 10p_m - 1p_b - 43.03421571533775z1_2cost <= 42.999999999
nb_1_is_prod_dom_by_2___________:
0p_beta + 0p_transfercostProductivityDominance - 43.03421571533775z1_2prod <= -100.000000001
nb_1_and_2_are_less_than_maxDist:
1p_maxDistance + 43.03421571533775z1_2cost + 43.03421571533775z1_2prod >= 1e-9
nb_1_is_cost_dom_by_3___________:
26p_alpha + 1p_penaltyDirect + 0p_transfercostCostDominance + 0p_m + 0p_b - 43.03421571533775z1_3cost <= -1e-9
nb_1_is_prod_dom_by_3___________:
260p_beta + 0p_transfercostProductivityDominance - 43.03421571533775z1_3prod <= -1e-9
nb_1_and_3_are_less_than_maxDist:
1p_maxDistance + 43.03421571533775z1_3cost + 43.03421571533775z1_3prod >= 26.000000001
nb_1_is_cost_dom_by_4___________:
44.2p_alpha + 1p_penaltyDirect + 0p_transfercostCostDominance - 6p_m + 0p_b - 43.03421571533775z1_4cost <= 12.999999999
nb_1_is_prod_dom_by_4___________:
104p_beta + 0p_transfercostProductivityDominance - 43.03421571533775z1_4prod <= -32.000000001
nb_1_and_4_are_less_than_maxDist:
1p_maxDistance + 43.03421571533775z1_4cost + 43.03421571533775z1_4prod >= 26.000000001
nb_1_is_cost_dom_by_5___________:
33p_alpha + 1p_penaltyDirect + 0p_transfercostCostDominance + 0p_m + 0p_b - 43.03421571533775z1_5cost <= -1e-9
nb_1_is_prod_dom_by_5___________:
330p_beta + 0p_transfercostProductivityDominance - 43.03421571533775z1_5prod <= -1e-9
nb_1_and_5_are_less_than_maxDist:
1p_maxDistance + 43.03421571533775z1_5cost + 43.03421571533775z1_5prod >= 33.000000001
nb_1_is_cost_dom_by_6___________:
43p_alpha + 1p_penaltyDirect + 0p_transfercostCostDominance + 0p_m + 0p_b - 43.03421571533775z1_6cost <= -1e-9
nb_1_is_prod_dom_by_6___________:
430p_beta + 0p_transfercostProductivityDominance - 43.03421571533775z1_6prod <= -1e-9
nb_1_and_6_are_less_than_maxDist:
1p_maxDistance + 43.03421571533775z1_6cost + 43.03421571533775z1_6prod >= 43.000000001
nb_3_is_cost_dom_by_0___________:
33p_alpha + 1p_penaltyDirect + 0p_transfercostCostDominance + 0p_m + 0p_b - 43.03421571533775z3_0cost <= -1e-9
nb_3_is_prod_dom_by_0___________:
330p_beta + 0p_transfercostProductivityDominance - 43.03421571533775z3_0prod <= -1e-9
nb_3_and_0_are_less_than_maxDist:
1p_maxDistance + 43.03421571533775z3_0cost + 43.03421571533775z3_0prod >= 33.000000001
nb_3_is_cost_dom_by_1___________:
26p_alpha + 1p_penaltyDirect + 0p_transfercostCostDominance + 0p_m + 0p_b - 43.03421571533775z3_1cost <= -1e-9
nb_3_is_prod_dom_by_1___________:
260p_beta + 0p_transfercostProductivityDominance - 43.03421571533775z3_1prod <= -1e-9
nb_3_and_1_are_less_than_maxDist:
1p_maxDistance + 43.03421571533775z3_1cost + 43.03421571533775z3_1prod >= 26.000000001
nb_3_is_cost_dom_by_2___________:
30.1p_alpha + 1p_penaltyDirect + 0p_transfercostCostDominance - 10p_m - 1p_b - 43.03421571533775z3_2cost <= 42.999999999
nb_3_is_prod_dom_by_2___________:
0p_beta + 0p_transfercostProductivityDominance - 43.03421571533775z3_2prod <= -100.000000001
nb_3_and_2_are_less_than_maxDist:
1p_maxDistance + 43.03421571533775z3_2cost + 43.03421571533775z3_2prod >= 7.000000001
nb_3_is_cost_dom_by_4___________:
0p_alpha + 1p_penaltyDirect + 0p_transfercostCostDominance - 6p_m + 0p_b - 43.03421571533775z3_4cost <= 12.999999999
nb_3_is_prod_dom_by_4___________:
0p_beta + 0p_transfercostProductivityDominance - 43.03421571533775z3_4prod <= -32.000000001
nb_3_and_4_are_less_than_maxDist:
1p_maxDistance + 43.03421571533775z3_4cost + 43.03421571533775z3_4prod >= 1e-9
nb_3_is_cost_dom_by_5___________:
7p_alpha + 1p_penaltyDirect + 0p_transfercostCostDominance + 0p_m + 0p_b - 43.03421571533775z3_5cost <= -1e-9
nb_3_is_prod_dom_by_5___________:
70p_beta + 0p_transfercostProductivityDominance - 43.03421571533775z3_5prod <= -1e-9
nb_3_and_5_are_less_than_maxDist:
1p_maxDistance + 43.03421571533775z3_5cost + 43.03421571533775z3_5prod >= 7.000000001
nb_3_is_cost_dom_by_6___________:
17p_alpha + 1p_penaltyDirect + 0p_transfercostCostDominance + 0p_m + 0p_b - 43.03421571533775z3_6cost <= -1e-9
nb_3_is_prod_dom_by_6___________:
170p_beta + 0p_transfercostProductivityDominance - 43.03421571533775z3_6prod <= -1e-9
nb_3_and_6_are_less_than_maxDist:
1p_maxDistance + 43.03421571533775z3_6cost + 43.03421571533775z3_6prod >= 17.000000001
nb_5_is_cost_dom_by_0___________:
40p_alpha + 1p_penaltyDirect + 0p_transfercostCostDominance + 0p_m + 0p_b - 43.03421571533775z5_0cost <= -1e-9
nb_5_is_prod_dom_by_0___________:
400p_beta + 0p_transfercostProductivityDominance - 43.03421571533775z5_0prod <= -1e-9
nb_5_and_0_are_less_than_maxDist:
1p_maxDistance + 43.03421571533775z5_0cost + 43.03421571533775z5_0prod >= 40.000000001
nb_5_is_cost_dom_by_1___________:
33p_alpha + 1p_penaltyDirect + 0p_transfercostCostDominance + 0p_m + 0p_b - 43.03421571533775z5_1cost <= -1e-9
nb_5_is_prod_dom_by_1___________:
330p_beta + 0p_transfercostProductivityDominance - 43.03421571533775z5_1prod <= -1e-9
nb_5_and_1_are_less_than_maxDist:
1p_maxDistance + 43.03421571533775z5_1cost + 43.03421571533775z5_1prod >= 33.000000001
nb_5_is_cost_dom_by_2___________:
0p_alpha + 1p_penaltyDirect + 0p_transfercostCostDominance - 10p_m - 1p_b - 43.03421571533775z5_2cost <= 42.999999999
nb_5_is_prod_dom_by_2___________:
0p_beta + 0p_transfercostProductivityDominance - 43.03421571533775z5_2prod <= -100.000000001
nb_5_and_2_are_less_than_maxDist:
1p_maxDistance + 43.03421571533775z5_2cost + 43.03421571533775z5_2prod >= 1e-9
nb_5_is_cost_dom_by_3___________:
7p_alpha + 1p_penaltyDirect + 0p_transfercostCostDominance + 0p_m + 0p_b - 43.03421571533775z5_3cost <= -1e-9
nb_5_is_prod_dom_by_3___________:
70p_beta + 0p_transfercostProductivityDominance - 43.03421571533775z5_3prod <= -1e-9
nb_5_and_3_are_less_than_maxDist:
1p_maxDistance + 43.03421571533775z5_3cost + 43.03421571533775z5_3prod >= 7.000000001
nb_5_is_cost_dom_by_4___________:
0p_alpha + 1p_penaltyDirect + 0p_transfercostCostDominance - 6p_m + 0p_b - 43.03421571533775z5_4cost <= 12.999999999
nb_5_is_prod_dom_by_4___________:
0p_beta + 0p_transfercostProductivityDominance - 43.03421571533775z5_4prod <= -32.000000001
nb_5_and_4_are_less_than_maxDist:
1p_maxDistance + 43.03421571533775z5_4cost + 43.03421571533775z5_4prod >= 1e-9
nb_5_is_cost_dom_by_6___________:
10p_alpha + 1p_penaltyDirect + 0p_transfercostCostDominance + 0p_m + 0p_b - 43.03421571533775z5_6cost <= -1e-9
nb_5_is_prod_dom_by_6___________:
100p_beta + 0p_transfercostProductivityDominance - 43.03421571533775z5_6prod <= -1e-9
nb_5_and_6_are_less_than_maxDist:
1p_maxDistance + 43.03421571533775z5_6cost + 43.03421571533775z5_6prod >= 10.000000001
nb_6_is_cost_dom_by_0___________:
50p_alpha + 1p_penaltyDirect + 0p_transfercostCostDominance + 0p_m + 0p_b - 43.03421571533775z6_0cost <= -1e-9
nb_6_is_prod_dom_by_0___________:
500p_beta + 0p_transfercostProductivityDominance - 43.03421571533775z6_0prod <= -1e-9
nb_6_and_0_are_less_than_maxDist:
1p_maxDistance + 43.03421571533775z6_0cost + 43.03421571533775z6_0prod >= 50.000000001
nb_6_is_cost_dom_by_1___________:
43p_alpha + 1p_penaltyDirect + 0p_transfercostCostDominance + 0p_m + 0p_b - 43.03421571533775z6_1cost <= -1e-9
nb_6_is_prod_dom_by_1___________:
430p_beta + 0p_transfercostProductivityDominance - 43.03421571533775z6_1prod <= -1e-9
nb_6_and_1_are_less_than_maxDist:
1p_maxDistance + 43.03421571533775z6_1cost + 43.03421571533775z6_1prod >= 43.000000001
nb_6_is_cost_dom_by_2___________:
43p_alpha + 1p_penaltyDirect + 0p_transfercostCostDominance - 10p_m - 1p_b - 43.03421571533775z6_2cost <= 42.999999999
nb_6_is_prod_dom_by_2___________:
0p_beta + 0p_transfercostProductivityDominance - 43.03421571533775z6_2prod <= -100.000000001
nb_6_and_2_are_less_than_maxDist:
1p_maxDistance + 43.03421571533775z6_2cost + 43.03421571533775z6_2prod >= 10.000000001
nb_6_is_cost_dom_by_3___________:
17p_alpha + 1p_penaltyDirect + 0p_transfercostCostDominance + 0p_m + 0p_b - 43.03421571533775z6_3cost <= -1e-9
nb_6_is_prod_dom_by_3___________:
170p_beta + 0p_transfercostProductivityDominance - 43.03421571533775z6_3prod <= -1e-9
nb_6_and_3_are_less_than_maxDist:
1p_maxDistance + 43.03421571533775z6_3cost + 43.03421571533775z6_3prod >= 17.000000001
nb_6_is_cost_dom_by_4___________:
17p_alpha + 1p_penaltyDirect + 0p_transfercostCostDominance - 6p_m + 0p_b - 43.03421571533775z6_4cost <= 12.999999999
nb_6_is_prod_dom_by_4___________:
40p_beta + 0p_transfercostProductivityDominance - 43.03421571533775z6_4prod <= -32.000000001
nb_6_and_4_are_less_than_maxDist:
1p_maxDistance + 43.03421571533775z6_4cost + 43.03421571533775z6_4prod >= 10.000000001
nb_6_is_cost_dom_by_5___________:
10p_alpha + 1p_penaltyDirect + 0p_transfercostCostDominance + 0p_m + 0p_b - 43.03421571533775z6_5cost <= -1e-9
nb_6_is_prod_dom_by_5___________:
100p_beta + 0p_transfercostProductivityDominance - 43.03421571533775z6_5prod <= -1e-9
nb_6_and_5_are_less_than_maxDist:
1p_maxDistance + 43.03421571533775z6_5cost + 43.03421571533775z6_5prod >= 10.000000001
BOUNDS
0 <= p_penaltyDirect
0 <= p_m
0 <= p_b
0 <= p_alpha
0 <= p_beta
0 <= p_maxDistance
0 <= p_transfercostCostDominance
0 <= p_transfercostProductivityDominance
Binary
 z0_1cost
 z0_1prod
 z0_2cost
 z0_2prod
 z0_3cost
 z0_3prod
 z0_4cost
 z0_4prod
 z0_5cost
 z0_5prod
 z0_6cost
 z0_6prod
 z1_0cost
 z1_0prod
 z1_2cost
 z1_2prod
 z1_3cost
 z1_3prod
 z1_4cost
 z1_4prod
 z1_5cost
 z1_5prod
 z1_6cost
 z1_6prod
 z3_0cost
 z3_0prod
 z3_1cost
 z3_1prod
 z3_2cost
 z3_2prod
 z3_4cost
 z3_4prod
 z3_5cost
 z3_5prod
 z3_6cost
 z3_6prod
 z5_0cost
 z5_0prod
 z5_1cost
 z5_1prod
 z5_2cost
 z5_2prod
 z5_3cost
 z5_3prod
 z5_4cost
 z5_4prod
 z5_6cost
 z5_6prod
 z6_0cost
 z6_0prod
 z6_1cost
 z6_1prod
 z6_2cost
 z6_2prod
 z6_3cost
 z6_3prod
 z6_4cost
 z6_4prod
 z6_5cost
 z6_5prod
End
